TOUR_SECTION
59
140
172
28
109
93
158
131
73
153
88
166
53
38
127
150
162
106
76
48
188
90
152
87
50
120
12
20
193
16
57
62
85
142
97
55
75
36
41
63
129
13
69
189
71
200
64
108
123
180
174
30
179
82
183
35
103
44
14
4
164
29
34
168
118
157
100
186
182
81
163
52
40
9
33
141
156
175
135
185
177
195
176
165
10
114
198
22
46
112
113
25
147
137
136
27
133
60
21
77
116
161
1
96
31
26
126
24
7
102
191
19
101
17
98
167
199
184
151
117
15
94
11
47
72
192
173
190
121
83
122
128
2
5
86
95
39
99
67
65
54
107
154
45
187
80
139
89
37
171
104
105
132
145
197
43
115
119
194
138
125
78
74
170
110
18
23
111
32
91
178
148
169
160
92
79
159
84
181
124
56
61
49
134
66
70
196
130
68
146
143
42
51
58
8
149
144
3
6
155
-1
EOF